(declare-const x1 Bool)
(declare-const x2 Bool)
(declare-const x3 Bool)
(declare-const x4 Bool)
(declare-const x5 Bool)
(declare-const x6 Bool)
(declare-const x7 Bool)
(declare-const x8 Bool)
(declare-const x9 Bool)
(declare-const x10 Bool)

(assert (and
(or x3 (not x3) (not x4))
(or x4 (not x5) x3)
(or (not x7) (not x9) x8)
(or x7 x5 x3)
(or (not x1) x2 (not x9))
(or (not x10) (not x7) (not x9))
(or (not x8) x4 x5)
(or x5 x6 x5)
(or x7 (not x10) x7)
(or (not x4) (not x3) (not x9))
(or (not x3) x7 (not x5))
(or x9 x2 (not x8))
(or x9 (not x9) x9)
(or x2 x3 x5)
(or x8 x6 x1)
(or (not x8) x2 x3)
(or x4 (not x8) x9)
(or x9 (not x3) (not x6))
(or (not x9) x4 x9)
(or (not x1) x6 x5)
))